nbObj= 100;
Capacity= 126;
Profit =[ 22,8,42,5,49,26,39,55,33,44,5,52,7,46,28,47,47,27,9,9,8,39,12,32,34,17,9,25,19,49,18,35,17,25,30,10,46,4,29,30,45,32,4,52,51,11,16,12,59,44,43,45,25,21,5,46,34,30,6,61,5,49,46,36,24,8,43,29,16,9,30,4,5,40,49,49,30,45,51,51,25,23,33,32,28,9,23,48,20,9,45,36,34,13,37,42,59,35,32,17];
Weight =[ 30,9,49,7,57,35,44,56,46,54,6,59,9,53,35,50,53,29,11,11,9,53,15,39,40,23,12,31,25,55,24,51,22,30,33,11,49,5,31,43,47,36,5,58,61,15,17,13,63,50,53,48,34,24,6,55,42,39,7,62,8,64,61,42,29,10,54,34,20,11,35,6,6,42,51,60,32,54,58,59,37,26,37,37,37,10,24,59,22,13,48,50,46,14,50,48,61,36,45,21];
